c turning on binary mode checking
c parsing input formula with 259840 variables and 1039929 clauses
c finished parsing, read 3835543 bytes from proof file
c detected empty clause; start verification via backward checking
c 3384 of 1039929 clauses in core                            
c 1127 of 152317 lemmas in core using 23986 resolution steps
c 0 RAT lemmas in core; 97 redundant literals in core lemmas
s VERIFIED
c verification time: 1.429 seconds
